(set-logic QF_S)
(declare-fun var0 () String)
(declare-fun var1 () String)
(declare-fun var2 () String)
(declare-fun var3 () Int)
(declare-fun var4 () String)
(declare-fun var5 () Int)
(declare-fun var6 () Int)
(declare-fun var7 () Int)
(assert (<= (str.len var0) (str.len "*@rqo:_.")))
(assert (>= (str.indexof var1 var2 var3) (str.indexof var4 var2 var5)))
(assert (< var6 var7))
(assert (str.suffixof (str.at (str.substr var1 var3 var6) (str.to.int var2)) (str.substr "}@=K5_>" var3 var6)))
(check-sat)